gen cost
0 1448
1 1408
2 1408
3 1403
4 1393
5 1375
6 1363
7 1338
8 1326
9 1324
10 1323
11 1323
12 1317
13 1317
14 1317
15 1314
16 1314
17 1307
18 1291
19 1289
20 1289
21 1273
22 1273
23 1273
24 1273
25 1273
26 1273
27 1266
28 1266
29 1259
30 1259
31 1237
32 1235
33 1231
34 1223
35 1220
36 1217
37 1217
38 1217
39 1212
40 1208
41 1208
42 1207
43 1194
44 1182
45 1182
46 1182
47 1179
48 1179
49 1179
